691 951
531 428
317 413
557 688
790 854
987 984
164 926
891 918
281 899
547 621
481 504
747 911
548 259
284 927
820 127
221 830
415 113
390 170
819 173
822 853
794 969
260 279
111 150
335 180
407 463
243 603
514 4
269 766
8 177
711 921
800 999
4 62
403 415
334 558
87 27
984 471
492 358
631 489
630 701
646 405
650 271
535 911
115 418
193 187
885 878
858 672
364 947
98 168
35 617
480 27
419 592
465 108
774 343
558 280
980 772
539 796
719 548
180 130
126 301
165 472
701 231
577 810
660 737
681 373
180 276
31 269
511 224
160 796
424 364
375 10
531 59
247 913
986 851
501 797
44 585
